JulietBench/Juliet_Based_Patch_Bench/linux/CWE-190-Integer-Overflow-or-Wraparound/CVE_2016_9754_59643d1535eb220668692a5359de22545af579f6/Resultring_buffer_resize_Snippet_patch1EQ.smt2
; benchmark generated from python API
(set-info :status unknown)
(declare-fun rdi () (_ BitVec 64))
(declare-fun R () (_ BitVec 32))
(assert
 (let ((?x12 (bvadd (_ bv8156 64) rdi)))
 (let ((?x14 (concat (_ bv0 64) ?x12)))
 (let ((?x15 (bvmul (_ bv9262947618721873657 128) ?x14)))
 (let ((?x22 ((_ extract 127 76) ?x15)))
 (let ((?x23 (concat (_ bv0 12) ?x22)))
 (let ((?x24 (bvmul (_ bv8157 64) ?x23)))
 (let ((?x139 ((_ extract 31 0) ?x24)))
 (let (($x140 (= R ?x139)))
 (let (($x118 (bvugt ?x23 (_ bv1 64))))
 (let (($x141 (and $x118 $x140)))
 (let (($x137 (= (_ bv16314 32) R)))
 (let (($x91 (bvule ?x23 (_ bv1 64))))
 (let (($x138 (and $x91 $x137)))
 (let (($x142 (or $x138 $x141)))
 (let ((?x80 (bvadd (_ bv8156 64) ?x24)))
 (let ((?x81 (concat (_ bv0 64) ?x80)))
 (let ((?x82 (bvmul (_ bv9262947618721873657 128) ?x81)))
 (let ((?x132 ((_ extract 107 76) ?x82)))
 (let (($x133 (= R ?x132)))
 (let (($x64 (bvugt ?x24 (_ bv16313 64))))
 (let (($x134 (and $x64 $x133)))
 (let (($x128 (= (_ bv2 32) R)))
 (let (($x26 (bvule ?x24 (_ bv16313 64))))
 (let (($x129 (and $x26 $x128)))
 (let (($x135 (or $x129 $x134)))
 (and $x135 $x142)))))))))))))))))))))))))))
(check-sat)
